Route 1: 26 22 23 39 21 4 25
Route 2: 12 24 29 9 33 34 35 1
Route 3: 40 42 15 41 43 2 13 37 6
Route 4: 27 31 10 11 30 32 20 50 3 28
Route 5: 5 14 44 38 16 17 45 18
Route 6: 48 47 46 8 19 36 49 7
Vehicles: 6
Distance: 772.76
